
Gurobi 9.5.2 (win64) logging started Mon Mar 27 20:26:09 2023

Set parameter LogFile to value "2023-03-27_20hr-25min-09sec/Nodes20_Arcs25_LocNodes15/Formulation-2Instance-2.log"
Set parameter TimeLimit to value 600
Set parameter IntFeasTol to value 1e-09
Set parameter DualReductions to value 0
Set parameter NonConvex to value 2
Gurobi Optimizer version 9.5.2 build v9.5.2rc0 (win64)
Thread count: 4 physical cores, 8 logical processors, using up to 8 threads
Optimize a model with 81 rows, 140 columns and 290 nonzeros
Model fingerprint: 0x60af2d5c
Model has 45 quadratic objective terms
Model has 45 SOS constraints
Variable types: 125 continuous, 15 integer (15 binary)
Coefficient statistics:
  Matrix range     [2e-03, 2e+02]
  Objective range  [6e-02, 1e+03]
  QObjective range [4e-03, 8e+00]
  Bounds range     [1e+00, 1e+00]
  RHS range        [6e-02, 1e+03]
Presolve removed 8 rows and 9 columns
Presolve time: 0.00s
Presolved: 73 rows, 131 columns, 273 nonzeros
Presolved model has 42 SOS constraint(s)
Presolved model has 42 quadratic objective terms
Variable types: 116 continuous, 15 integer (15 binary)

Root relaxation: objective 5.032896e+05, 150 iterations, 0.00 seconds (0.00 work units)

    Nodes    |    Current Node    |     Objective Bounds      |     Work
 Expl Unexpl |  Obj  Depth IntInf | Incumbent    BestBd   Gap | It/Node Time

     0     0 503289.638    0    4          - 503289.638      -     -    0s
H    0     0                    498396.62088 503289.638  0.98%     -    0s
     0     0 503119.823    0    4 498396.621 503119.823  0.95%     -    0s
     0     0 499739.838    0    9 498396.621 499739.838  0.27%     -    0s
     0     0 499572.968    0    5 498396.621 499572.968  0.24%     -    0s
H    0     0                    498845.55984 499572.968  0.15%     -    0s
     0     0 499421.039    0    5 498845.560 499421.039  0.12%     -    0s
     0     0 499053.394    0    5 498845.560 499053.394  0.04%     -    0s
     0     0 499045.351    0    4 498845.560 499045.351  0.04%     -    0s
     0     2 499045.351    0    4 498845.560 499045.351  0.04%     -    0s

Cutting planes:
  Cover: 5
  Implied bound: 1
  Clique: 1
  MIR: 1
  Flow cover: 3
  Relax-and-lift: 3

Explored 47 nodes (392 simplex iterations) in 0.17 seconds (0.01 work units)
Thread count was 8 (of 8 available processors)

Solution count 2: 498846 498397 

Optimal solution found (tolerance 1.00e-04)
Best objective 4.988455598423e+05, best bound 4.988455598423e+05, gap 0.0000%

User-callback calls 401, time in user-callback 0.01 sec
